17	4
25	21	16	15	
0	0	0	0	0	3	2	3	4	
9	0	4	0	0	3	5	8	9	
9	0	7	0	9	3	10	11	12	
8	0	5	0	0	3	6	7	17	
1	1	0	0	5	3	10	11	16	
150	0	7	0	0	3	13	17	17	
150	3	3	10	0	3	10	12	16	
50	0	0	0	5	1	11	
150	0	6	1	3	3	13	17	17	
175	0	4	0	0	3	14	17	17	
25	6	3	0	0	3	17	17	17	
100	3	0	3	0	3	17	17	17	
5	2	3	3	2	3	16	17	17	
10	10	7	6	0	2	15	17	
10	0	0	6	1	3	17	17	17	
5	8	10	0	10	3	17	17	17	
0	0	0	0	0	0	
